&CONTROL
calculation='scf'
outdir='./qesuite_out'
etot_conv_thr=0.0001
forc_conv_thr=0.001
pseudo_dir='../SSSP/'
lfcp=.FALSE.
tprnfor=.TRUE.
tstress=.TRUE.
verbosity='high'
/
&SYSTEM
ntyp=3
nat=42
occupations='smearing'
smearing='cold'
degauss=0.0146997236
assume_isolated='2D'
ecutwfc=50.0
ecutrho=360.0
ibrav=0
/
&ELECTRONS
diagonalization='david'
conv_thr=4e-10
electron_maxstep=200
mixing_beta=0.4
/

ATOMIC_SPECIES
C 12.011 C.pbesol-n-kjpaw_psl.1.0.0.UPF 
Se 78.971 se_pbesol_v1.uspp.F.UPF 
Pd 106.42 Pd_ONCV_PBEsol-1.0.upf 

ATOMIC_POSITIONS crystal
C 0.002313275678043852 0.9826745167986619 0.5399987573527907 
C 0.1578835246975819 0.027150035482597364 0.5399987595027327 
C 0.06897994234471057 0.7160078501319954 0.5399987573527907 
C 0.2245501913642485 0.7604833688159307 0.5399987595027327 
C 0.13564660901137723 0.4493411834653286 0.5399987573527907 
C 0.29121685803091535 0.4938167021492641 0.5399987595027327 
C 0.20231327567804389 0.18267451679866192 0.5399987573527907 
C 0.35788352469758195 0.22715003548259743 0.5399987595027327 
C 0.2689799423447105 0.9160078501319954 0.5399987573527907 
C 0.4245501913642486 0.9604833688159308 0.5399987595027327 
C 0.3356466090113771 0.6493411834653285 0.5399987573527907 
C 0.49121685803091536 0.6938167021492642 0.5399987595027327 
C 0.40231327567804376 0.3826745167986619 0.5399987573527907 
C 0.557883524697582 0.42715003548259745 0.5399987595027327 
C 0.46897994234471047 0.11600785013199526 0.5399987573527907 
C 0.6245501913642486 0.16048336881593075 0.5399987595027327 
C 0.5356466090113771 0.8493411834653286 0.5399987573527907 
C 0.6912168580309154 0.8938167021492641 0.5399987595027327 
C 0.6023132756780438 0.582674516798662 0.5399987573527907 
C 0.7578835246975819 0.6271500354825975 0.5399987595027327 
C 0.6689799423447106 0.3160078501319954 0.5399987573527907 
C 0.8245501913642486 0.3604833688159309 0.5399987595027327 
C 0.7356466090113771 0.04934118346532859 0.5399987573527907 
C 0.8912168580309151 0.09381670214926423 0.5399987595027327 
C 0.8023132756780438 0.782674516798662 0.5399987573527907 
C 0.957883524697582 0.8271500354825976 0.5399987595027327 
C 0.8689799423447104 0.5160078501319955 0.5399987573527907 
C 0.02455019136424852 0.5604833688159311 0.5399987595027327 
C 0.9356466090113771 0.24934118346532863 0.5399987573527907 
C 0.09121685803091517 0.29381670214926425 0.5399987595027327 
Pd 0.9884394157174625 0.4375296630587671 0.7166840075819456 
Pd 0.9884166384415359 0.9375123802666373 0.7166840073392992 
Se 0.8537021772728305 0.18293531106763425 0.671497820608448 
Se 0.23386234621076057 0.3028152009665596 0.7618701946993247 
Se 0.623171158590957 0.19212950771969883 0.7618701944474282 
Se 0.24301099011042873 0.07224961818319578 0.6714978206832624 
Pd 0.4884394157174623 0.9375296630587671 0.7166840075819456 
Pd 0.4884166384415359 0.43751238026663736 0.7166840073392992 
Se 0.3537021772728305 0.6829353110676343 0.671497820608448 
Se 0.7338623462107604 0.8028152009665597 0.7618701946993247 
Se 0.12317115859095695 0.6921295077196989 0.7618701944474282 
Se 0.7430109901104286 0.5722496181831959 0.6714978206832624 

K_POINTS automatic
10 10 1 1 1 1 