&CONTROL
calculation='scf'
outdir='./qesuite_out'
etot_conv_thr=0.0001
forc_conv_thr=0.001
pseudo_dir='../SSSP/'
lfcp=.FALSE.
tprnfor=.TRUE.
tstress=.TRUE.
verbosity='high'
/
&SYSTEM
ntyp=3
nat=37
occupations='smearing'
smearing='cold'
degauss=0.0146997236
assume_isolated='2D'
ecutwfc=50.0
ecutrho=360.0
ibrav=0
/
&ELECTRONS
diagonalization='david'
conv_thr=4e-10
electron_maxstep=200
mixing_beta=0.4
/

ATOMIC_SPECIES
Se 78.971 se_pbesol_v1.uspp.F.UPF 
C 12.011 C.pbesol-n-kjpaw_psl.1.0.0.UPF 
Pd 106.42 Pd_ONCV_PBEsol-1.0.upf 

ATOMIC_POSITIONS crystal
C 0.696294258448177 0.9814093530479339 0.5422152746287351 
C 0.816222684883799 0.20453444284920702 0.5422152746287351 
C 0.2187084420119419 0.20453444284920702 0.5422152746287351 
C 0.07914659272142499 0.4634927462487826 0.5422152746287351 
C 0.36478106443510083 0.11822773419618401 0.5422152724787932 
C 0.5174655634478705 0.20453444284920702 0.5422152746287351 
C 0.22521921514458393 0.37718603759575964 0.5422152724787932 
C 0.3779037141573537 0.4634927462487826 0.5422152746287351 
C 0.08565736585406702 0.6361443409953353 0.5422152724787932 
C 0.23834186486683673 0.7224510496483585 0.5422152746287351 
C 0.09878001557631982 0.9814093530479339 0.5422152746287351 
C 0.6635381858710295 0.11822773419618401 0.5422152724787932 
C 0.5239763365805125 0.37718603759575964 0.5422152724787932 
C 0.5436097594354072 0.895102644394911 0.5422152724787932 
C 0.6766608355932822 0.4634927462487826 0.5422152746287351 
C 0.38441448728999567 0.6361443409953353 0.5422152724787932 
C 0.5370989863027653 0.7224510496483585 0.5422152746287351 
C 0.24485263799947873 0.895102644394911 0.5422152724787932 
C 0.3975371370122484 0.9814093530479339 0.5422152746287351 
C 0.962295307306958 0.11822773419618401 0.5422152724787932 
C 0.8227334580164413 0.37718603759575964 0.5422152724787932 
C 0.9754179570292107 0.4634927462487826 0.5422152746287351 
C 0.6831716087259241 0.6361443409953353 0.5422152724787932 
C 0.8358561077386938 0.7224510496483585 0.5422152746287351 
C 0.06602394299917223 0.11822773419618401 0.5422152724787932 
Pd 0.6331104256683586 0.37250560321358983 0.722900232288664 
Pd 0.29522410208210037 0.7313274437344951 0.7229002325547825 
Pd 0.9363781786040026 0.37250560321358983 0.722900232288664 
Se 0.7232019142032964 0.8173411986966864 0.6733430350947153 
Se 0.9068757378519602 0.4585193583234946 0.6733430351767666 
Se 0.7022983663023366 0.09970540373137055 0.6733430350947153 
Se 0.38030448223510227 0.004127643658636604 0.7724574301726492 
Se 0.026469667138940323 0.8173411986966864 0.6733430350947153 
Se 0.21014349078760453 0.4585193583234946 0.6733430351767666 
Se 0.5639783053105832 0.6453058032172845 0.772457429896386 
Se 0.3594009343341427 0.28649184869332106 0.7724574301726492 
Se 0.005566119237980716 0.09970540373137055 0.6733430350947153 

K_POINTS automatic
10 10 1 1 1 1 