&CONTROL
calculation='scf'
outdir='./qesuite_out'
etot_conv_thr=0.0001
forc_conv_thr=0.001
pseudo_dir='../SSSP/'
lfcp=.FALSE.
tprnfor=.TRUE.
tstress=.TRUE.
verbosity='high'
/
&SYSTEM
ntyp=3
nat=44
occupations='smearing'
smearing='cold'
degauss=0.0146997236
assume_isolated='2D'
ecutwfc=50.0
ecutrho=360.0
ibrav=0
/
&ELECTRONS
diagonalization='david'
conv_thr=4e-10
electron_maxstep=200
mixing_beta=0.4
/

ATOMIC_SPECIES
Pd 106.42 Pd_ONCV_PBEsol-1.0.upf 
Se 78.971 se_pbesol_v1.uspp.F.UPF 
C 12.011 C.pbesol-n-kjpaw_psl.1.0.0.UPF 

ATOMIC_POSITIONS crystal
C 0.7678150425498401 0.8787094299048576 0.5316922989977664 
C 0.6122447935303018 0.834233911220922 0.5316922968478245 
C 0.23448170921650657 0.01204276323819092 0.5316922989977664 
C 0.27891146019696844 0.16756724455425534 0.5316922968478245 
C 0.4344817092165066 0.21204276323819088 0.5316922989977664 
C 0.4789114601969685 0.3675672445542554 0.5316922968478245 
C 0.6344817092165067 0.41204276323819083 0.5316922989977664 
C 0.5455781268636352 0.10090057788758865 0.5316922968478245 
C 0.7011483758831734 0.14537609657152425 0.5316922989977664 
C 0.6789114601969685 0.5675672445542552 0.5316922968478245 
C 0.8344817092165067 0.6120427632381908 0.5316922989977664 
C 0.745578126863635 0.3009005778875885 0.5316922968478245 
C 0.9011483758831732 0.3453760965715241 0.5316922989977664 
C 0.8122447935303019 0.03423391122092188 0.5316922968478245 
C 0.96781504254984 0.07870942990485749 0.5316922989977664 
C 0.8789114601969686 0.7675672445542553 0.5316922968478245 
C 0.03448170921650684 0.8120427632381908 0.5316922989977664 
C 0.9455781268636352 0.5009005778875886 0.5316922968478245 
C 0.012244793530301834 0.2342339112209219 0.5316922968478245 
C 0.16781504254983995 0.27870942990485764 0.5316922989977664 
C 0.10114837588317328 0.5453760965715244 0.5316922989977664 
C 0.21224479353030173 0.43423391122092214 0.5316922968478245 
C 0.3678150425498398 0.4787094299048576 0.5316922989977664 
C 0.1455781268636353 0.700900577887589 0.5316922968478245 
C 0.3011483758831733 0.7453760965715244 0.5316922989977664 
C 0.4122447935303017 0.634233911220922 0.5316922968478245 
C 0.5678150425498399 0.6787094299048575 0.5316922989977664 
C 0.3455781268636349 0.9009005778875888 0.5316922968478245 
C 0.5011483758831733 0.9453760965715243 0.5316922989977664 
C 0.07891146019696849 0.9675672445542555 0.5316922968478245 
Pd 0.23272951041886988 0.6674327776448838 0.7128079356943239 
Pd 0.6965339604345386 0.2036283276292148 0.7128079356943239 
Pd 0.6965825207555765 0.6674762412338505 0.7128079359604426 
Pd 0.23272321130091378 0.20361693177918785 0.7128079359604426 
Se 0.4689148554372302 0.7924375972145105 0.6632507385824267 
Se 0.8215822430742389 0.9036666816004016 0.7623651333020459 
Se 0.10777325068038832 0.8950953459321997 0.6632507385003752 
Se 0.005055545982567459 0.3285782877598477 0.6632507385824267 
Se 0.3577229336195758 0.4398073721457388 0.7623651333020459 
Se 0.9327193054528995 0.32863314719884157 0.6632507385824267 
Se 0.9242450887574007 0.5425199806386529 0.7623651335783092 
Se 0.5715777006960575 0.4312908959165307 0.6632507385003752 
Se 0.8215273836352447 0.9760029221300698 0.7623651333020459 
Se 0.46038577930273783 0.07866067118399014 0.7623651335783092 

K_POINTS automatic
10 10 1 1 1 1 