&CONTROL
calculation='vc-relax'
pseudo_dir='../SSSP'
/
&SYSTEM
ibrav=0
nat=2
ntyp=1
/
&ELECTRONS
electron_maxstep=200
conv_thr=4e-10
mixing_beta=0.4
diagonalization='david'
/
&IONS
ion_dynamics='bfgs'
/
&CELL
cell_dynamics='bfgs'
press_conv_thr=0.1
cell_dofree='all'
/
ATOMIC_SPECIES 
 C	12.0107 C.pbesol-n-kjpaw_psl.1.0.0.UPF
ATOMIC_POSITIONS crystal
C	 0.6667 0.3333 0.5
C	 0.3333 0.6667 0.5
K_POINTS automatic
 20 20 1 1 1 1
CELL_PARAMETERS angstrom
 2.467 0.0 0.0
 -1.234 2.137 0.0
 0.0 0.0 15.0
