&CONTROL
calculation='scf'
outdir='./qesuite_out'
etot_conv_thr=0.0001
forc_conv_thr=0.001
pseudo_dir='../SSSP/'
lfcp=.FALSE.
tprnfor=.TRUE.
tstress=.TRUE.
verbosity='high'
/
&SYSTEM
ntyp=2
nat=6
occupations='smearing'
smearing='cold'
degauss=0.0146997236
assume_isolated='2D'
ecutwfc=50.0
ecutrho=240.0
ibrav=12
celldm(1)=10.865925214606415
celldm(2)=1.0295652173913044
celldm(3)=2.8610434782608696
celldm(4)=-1.3954272449191486e-17
/
&ELECTRONS
diagonalization='david'
conv_thr=4e-10
electron_maxstep=200
mixing_beta=0.4
/

ATOMIC_SPECIES
Se 78.971 se_pbesol_v1.uspp.F.UPF 
Pd 106.42 Pd_ONCV_PBEsol-1.0.upf 

ATOMIC_POSITIONS crystal
Pd 6.6988867630860376e-34 0.5 0.5 
Pd 0.0 0.0 0.0 
Se 0.9548138131478257 0.11070846883705761 0.6198598607883994 
Se 0.04518618685217435 0.6107084688370576 0.8801401392116007 
Se 0.045186186852174334 0.8892915311629425 0.3801401392116007 
Se 0.9548138131478257 0.3892915311629423 0.11985986078839916 

K_POINTS automatic
10 10 1 1 1 1 