&CONTROL
calculation='scf'
outdir='./qesuite_out'
etot_conv_thr=0.0001
forc_conv_thr=0.001
pseudo_dir='./'
lfcp=.FALSE.
/
&SYSTEM
nat=2
ntype=1
ecutwfc=45.0
ecutrho=360.0
ibrav=4
celldm(0)=2.4673481470586243
celldm(2)=6.079401489360877
/
&ELECTRONS
diagonalization='david'
conv_thr=1.2e-09
electron_maxstep=200
mixing_beta=200
/

ATOMIC_SPECIES
C 12.011 ../../../SSSP/C.pbesol-n-kjpaw_psl.1.0.0.UPF 

ATOMIC_POSITIONS crystal
C 0.6666666666666665 0.3333333333333333 0.5 
C 0.33333333333333326 0.6666666666666666 0.5 

K_POINTS automatic
20 20 1 1 1 1 