&CONTROL
calculation='bands'
tstress=.TRUE.
tprnfor=.TRUE.
outdir='./qe_suite/'
prefix='qe_suite'
etot_conv_thr=0.0001
forc_conv_thr=0.001
pseudo_dir='../SSSP'
/
&SYSTEM
ibrav=0
nat=2
ntyp=1
/
&ELECTRONS
electron_maxstep=200
conv_thr=4e-10
mixing_beta=0.4
diagonalization='david'
/
ATOMIC_SPECIES 
 C	12.0107 C.pbesol-n-kjpaw_psl.1.0.0.UPF
ATOMIC_POSITIONS crystal
C	 0.6667 0.3333 0.5
C	 0.3333 0.6667 0.5
K_POINTS crystal_b
180
 0.0 0.0 0.0 1
 0.025 0.0 0.0 1
 0.05 0.0 0.0 1
 0.075 0.0 0.0 1
 0.1 0.0 0.0 1
 0.125 0.0 0.0 1
 0.15 0.0 0.0 1
 0.175 0.0 0.0 1
 0.2 0.0 0.0 1
 0.225 0.0 0.0 1
 0.25 0.0 0.0 1
 0.275 0.0 0.0 1
 0.3 0.0 0.0 1
 0.325 0.0 0.0 1
 0.35 0.0 0.0 1
 0.375 0.0 0.0 1
 0.4 0.0 0.0 1
 0.425 0.0 0.0 1
 0.45 0.0 0.0 1
 0.475 0.0 0.0 1
 0.5 0.0 0.0 1
 0.49166666666666664 0.016666666666666666 0.0 1
 0.48333333333333334 0.03333333333333333 0.0 1
 0.475 0.049999999999999996 0.0 1
 0.4666666666666667 0.06666666666666667 0.0 1
 0.4583333333333333 0.08333333333333333 0.0 1
 0.45 0.09999999999999999 0.0 1
 0.44166666666666665 0.11666666666666665 0.0 1
 0.43333333333333335 0.13333333333333333 0.0 1
 0.425 0.15 0.0 1
 0.41666666666666663 0.16666666666666666 0.0 1
 0.4083333333333333 0.18333333333333335 0.0 1
 0.4 0.19999999999999998 0.0 1
 0.39166666666666666 0.21666666666666667 0.0 1
 0.3833333333333333 0.2333333333333333 0.0 1
 0.375 0.25 0.0 1
 0.36666666666666664 0.26666666666666666 0.0 1
 0.3583333333333333 0.2833333333333333 0.0 1
 0.35 0.3 0.0 1
 0.3416666666666667 0.31666666666666665 0.0 1
 0.3333333333333333 0.3333333333333333 0.0 1
 0.31666666666666665 0.31666666666666665 0.0 1
 0.3 0.3 0.0 1
 0.2833333333333333 0.2833333333333333 0.0 1
 0.26666666666666666 0.26666666666666666 0.0 1
 0.25 0.25 0.0 1
 0.23333333333333334 0.23333333333333334 0.0 1
 0.21666666666666667 0.21666666666666667 0.0 1
 0.19999999999999998 0.19999999999999998 0.0 1
 0.18333333333333332 0.18333333333333332 0.0 1
 0.16666666666666666 0.16666666666666666 0.0 1
 0.14999999999999997 0.14999999999999997 0.0 1
 0.13333333333333333 0.13333333333333333 0.0 1
 0.11666666666666664 0.11666666666666664 0.0 1
 0.1 0.1 0.0 1
 0.08333333333333331 0.08333333333333331 0.0 1
 0.06666666666666665 0.06666666666666665 0.0 1
 0.04999999999999999 0.04999999999999999 0.0 1
 0.033333333333333326 0.033333333333333326 0.0 1
 0.016666666666666663 0.016666666666666663 0.0 1
 0.0 0.0 0.0 1
 0.0 0.0 0.025 1
 0.0 0.0 0.05 1
 0.0 0.0 0.075 1
 0.0 0.0 0.1 1
 0.0 0.0 0.125 1
 0.0 0.0 0.15 1
 0.0 0.0 0.175 1
 0.0 0.0 0.2 1
 0.0 0.0 0.225 1
 0.0 0.0 0.25 1
 0.0 0.0 0.275 1
 0.0 0.0 0.3 1
 0.0 0.0 0.325 1
 0.0 0.0 0.35 1
 0.0 0.0 0.375 1
 0.0 0.0 0.4 1
 0.0 0.0 0.425 1
 0.0 0.0 0.45 1
 0.0 0.0 0.475 1
 0.0 0.0 0.5 1
 0.025 0.0 0.5 1
 0.05 0.0 0.5 1
 0.075 0.0 0.5 1
 0.1 0.0 0.5 1
 0.125 0.0 0.5 1
 0.15 0.0 0.5 1
 0.175 0.0 0.5 1
 0.2 0.0 0.5 1
 0.225 0.0 0.5 1
 0.25 0.0 0.5 1
 0.275 0.0 0.5 1
 0.3 0.0 0.5 1
 0.325 0.0 0.5 1
 0.35 0.0 0.5 1
 0.375 0.0 0.5 1
 0.4 0.0 0.5 1
 0.425 0.0 0.5 1
 0.45 0.0 0.5 1
 0.475 0.0 0.5 1
 0.5 0.0 0.5 1
 0.49166666666666664 0.016666666666666666 0.5 1
 0.48333333333333334 0.03333333333333333 0.5 1
 0.475 0.049999999999999996 0.5 1
 0.4666666666666667 0.06666666666666667 0.5 1
 0.4583333333333333 0.08333333333333333 0.5 1
 0.45 0.09999999999999999 0.5 1
 0.44166666666666665 0.11666666666666665 0.5 1
 0.43333333333333335 0.13333333333333333 0.5 1
 0.425 0.15 0.5 1
 0.41666666666666663 0.16666666666666666 0.5 1
 0.4083333333333333 0.18333333333333335 0.5 1
 0.4 0.19999999999999998 0.5 1
 0.39166666666666666 0.21666666666666667 0.5 1
 0.3833333333333333 0.2333333333333333 0.5 1
 0.375 0.25 0.5 1
 0.36666666666666664 0.26666666666666666 0.5 1
 0.3583333333333333 0.2833333333333333 0.5 1
 0.35 0.3 0.5 1
 0.3416666666666667 0.31666666666666665 0.5 1
 0.3333333333333333 0.3333333333333333 0.5 1
 0.31666666666666665 0.31666666666666665 0.5 1
 0.3 0.3 0.5 1
 0.2833333333333333 0.2833333333333333 0.5 1
 0.26666666666666666 0.26666666666666666 0.5 1
 0.25 0.25 0.5 1
 0.23333333333333334 0.23333333333333334 0.5 1
 0.21666666666666667 0.21666666666666667 0.5 1
 0.19999999999999998 0.19999999999999998 0.5 1
 0.18333333333333332 0.18333333333333332 0.5 1
 0.16666666666666666 0.16666666666666666 0.5 1
 0.14999999999999997 0.14999999999999997 0.5 1
 0.13333333333333333 0.13333333333333333 0.5 1
 0.11666666666666664 0.11666666666666664 0.5 1
 0.1 0.1 0.5 1
 0.08333333333333331 0.08333333333333331 0.5 1
 0.06666666666666665 0.06666666666666665 0.5 1
 0.04999999999999999 0.04999999999999999 0.5 1
 0.033333333333333326 0.033333333333333326 0.5 1
 0.016666666666666663 0.016666666666666663 0.5 1
 0.5 0.0 0.5 1
 0.5 0.0 0.475 1
 0.5 0.0 0.45 1
 0.5 0.0 0.425 1
 0.5 0.0 0.4 1
 0.5 0.0 0.375 1
 0.5 0.0 0.35 1
 0.5 0.0 0.325 1
 0.5 0.0 0.3 1
 0.5 0.0 0.275 1
 0.5 0.0 0.25 1
 0.5 0.0 0.22499999999999998 1
 0.5 0.0 0.2 1
 0.5 0.0 0.175 1
 0.5 0.0 0.15000000000000002 1
 0.5 0.0 0.125 1
 0.5 0.0 0.09999999999999998 1
 0.5 0.0 0.07500000000000001 1
 0.5 0.0 0.04999999999999999 1
 0.5 0.0 0.025000000000000022 1
 0.3333333333333333 0.3333333333333333 0.5 1
 0.3333333333333333 0.3333333333333333 0.475 1
 0.3333333333333333 0.3333333333333333 0.45 1
 0.3333333333333333 0.3333333333333333 0.425 1
 0.3333333333333333 0.3333333333333333 0.4 1
 0.3333333333333333 0.3333333333333333 0.375 1
 0.3333333333333333 0.3333333333333333 0.35 1
 0.3333333333333333 0.3333333333333333 0.325 1
 0.3333333333333333 0.3333333333333333 0.3 1
 0.3333333333333333 0.3333333333333333 0.275 1
 0.3333333333333333 0.3333333333333333 0.25 1
 0.3333333333333333 0.3333333333333333 0.22499999999999998 1
 0.3333333333333333 0.3333333333333333 0.2 1
 0.3333333333333333 0.3333333333333333 0.175 1
 0.3333333333333333 0.3333333333333333 0.15000000000000002 1
 0.3333333333333333 0.3333333333333333 0.125 1
 0.3333333333333333 0.3333333333333333 0.09999999999999998 1
 0.3333333333333333 0.3333333333333333 0.07500000000000001 1
 0.3333333333333333 0.3333333333333333 0.04999999999999999 1
 0.3333333333333333 0.3333333333333333 0.025000000000000022 1
CELL_PARAMETERS angstrom
 2.467 0.0 0.0
 -1.234 2.137 0.0
 0.0 0.0 15.0
